n = 5;
pattern_length = 5;
num_patterns = 120;
num_classes = 24;
pattern = [|
1, 2, 3, 4, 5
| 1, 2, 3, 5, 4
| 1, 2, 4, 3, 5
| 1, 2, 4, 5, 3
| 1, 2, 5, 3, 4
| 1, 2, 5, 4, 3
| 1, 3, 2, 4, 5
| 1, 3, 2, 5, 4
| 1, 3, 4, 2, 5
| 1, 3, 4, 5, 2
| 1, 3, 5, 2, 4
| 1, 3, 5, 4, 2
| 1, 4, 2, 3, 5
| 1, 4, 2, 5, 3
| 1, 4, 3, 2, 5
| 1, 4, 3, 5, 2
| 1, 4, 5, 2, 3
| 1, 4, 5, 3, 2
| 1, 5, 2, 3, 4
| 1, 5, 2, 4, 3
| 1, 5, 3, 2, 4
| 1, 5, 3, 4, 2
| 1, 5, 4, 2, 3
| 1, 5, 4, 3, 2
| 2, 1, 3, 4, 5
| 2, 1, 3, 5, 4
| 2, 1, 4, 3, 5
| 2, 1, 4, 5, 3
| 2, 1, 5, 3, 4
| 2, 1, 5, 4, 3
| 2, 3, 1, 4, 5
| 2, 3, 1, 5, 4
| 2, 3, 4, 1, 5
| 2, 3, 4, 5, 1
| 2, 3, 5, 1, 4
| 2, 3, 5, 4, 1
| 2, 4, 1, 3, 5
| 2, 4, 1, 5, 3
| 2, 4, 3, 1, 5
| 2, 4, 3, 5, 1
| 2, 4, 5, 1, 3
| 2, 4, 5, 3, 1
| 2, 5, 1, 3, 4
| 2, 5, 1, 4, 3
| 2, 5, 3, 1, 4
| 2, 5, 3, 4, 1
| 2, 5, 4, 1, 3
| 2, 5, 4, 3, 1
| 3, 1, 2, 4, 5
| 3, 1, 2, 5, 4
| 3, 1, 4, 2, 5
| 3, 1, 4, 5, 2
| 3, 1, 5, 2, 4
| 3, 1, 5, 4, 2
| 3, 2, 1, 4, 5
| 3, 2, 1, 5, 4
| 3, 2, 4, 1, 5
| 3, 2, 4, 5, 1
| 3, 2, 5, 1, 4
| 3, 2, 5, 4, 1
| 3, 4, 1, 2, 5
| 3, 4, 1, 5, 2
| 3, 4, 2, 1, 5
| 3, 4, 2, 5, 1
| 3, 4, 5, 1, 2
| 3, 4, 5, 2, 1
| 3, 5, 1, 2, 4
| 3, 5, 1, 4, 2
| 3, 5, 2, 1, 4
| 3, 5, 2, 4, 1
| 3, 5, 4, 1, 2
| 3, 5, 4, 2, 1
| 4, 1, 2, 3, 5
| 4, 1, 2, 5, 3
| 4, 1, 3, 2, 5
| 4, 1, 3, 5, 2
| 4, 1, 5, 2, 3
| 4, 1, 5, 3, 2
| 4, 2, 1, 3, 5
| 4, 2, 1, 5, 3
| 4, 2, 3, 1, 5
| 4, 2, 3, 5, 1
| 4, 2, 5, 1, 3
| 4, 2, 5, 3, 1
| 4, 3, 1, 2, 5
| 4, 3, 1, 5, 2
| 4, 3, 2, 1, 5
| 4, 3, 2, 5, 1
| 4, 3, 5, 1, 2
| 4, 3, 5, 2, 1
| 4, 5, 1, 2, 3
| 4, 5, 1, 3, 2
| 4, 5, 2, 1, 3
| 4, 5, 2, 3, 1
| 4, 5, 3, 1, 2
| 4, 5, 3, 2, 1
| 5, 1, 2, 3, 4
| 5, 1, 2, 4, 3
| 5, 1, 3, 2, 4
| 5, 1, 3, 4, 2
| 5, 1, 4, 2, 3
| 5, 1, 4, 3, 2
| 5, 2, 1, 3, 4
| 5, 2, 1, 4, 3
| 5, 2, 3, 1, 4
| 5, 2, 3, 4, 1
| 5, 2, 4, 1, 3
| 5, 2, 4, 3, 1
| 5, 3, 1, 2, 4
| 5, 3, 1, 4, 2
| 5, 3, 2, 1, 4
| 5, 3, 2, 4, 1
| 5, 3, 4, 1, 2
| 5, 3, 4, 2, 1
| 5, 4, 1, 2, 3
| 5, 4, 1, 3, 2
| 5, 4, 2, 1, 3
| 5, 4, 2, 3, 1
| 5, 4, 3, 1, 2
| 5, 4, 3, 2, 1
|];
class = [{65, 1, 34, 97, 91}, {2, 36, 71, 73, 115}, {98, 67, 3, 40, 89}, {4, 42, 109, 49, 95}, {5, 74, 46, 113, 61}, {6, 48, 50, 85, 119}, {99, 7, 41, 58, 92}, {8, 75, 47, 116, 60}, {64, 100, 9, 43, 83}, {66, 103, 10, 25, 93}, {37, 70, 107, 11, 76}, {72, 12, 79, 117, 26}, {35, 68, 101, 13, 82}, {45, 110, 14, 51, 84}, {102, 44, 15, 88, 59}, {69, 104, 16, 90, 27}, {105, 17, 52, 94, 31}, {96, 111, 18, 55, 28}, {33, 106, 77, 19, 62}, {39, 108, 20, 53, 86}, {38, 78, 112, 21, 57}, {80, 114, 22, 29, 63}, {32, 81, 23, 118, 54}, {87, 24, 56, 120, 30}];
